SECTION Graph
Nodes 218
Edges 217

E 1 2 2
E 1 3 2
E 1 5 2
E 1 9 2
E 2 514 2
E 3 515 2
E 5 133 2
E 9 25 2
E 9 521 2
E 13 269 2
E 13 525 2
E 16 528 2
E 23 279 2
E 25 57 3
E 36 52 2
E 36 100 2
E 39 167 2
E 54 62 2
E 54 118 2
E 57 58 2
E 57 59 2
E 58 62 2
E 59 571 2
E 62 64 2
E 62 190 2
E 64 192 2
E 68 84 2
E 68 100 2
E 75 203 3
E 100 104 2
E 102 104 2
E 102 110 3
E 102 118 3
E 109 110 3
E 109 111 2
E 110 112 2
E 110 238 2
E 111 127 2
E 111 623 2
E 112 368 2
E 133 134 2
E 133 197 3
E 134 150 2
E 138 154 2
E 138 170 3
E 147 403 3
E 154 218 2
E 159 191 2
E 159 671 2
E 162 170 3
E 162 674 3
E 167 175 2
E 175 191 3
E 184 192 2
E 184 696 2
E 188 192 2
E 188 444 2
E 190 702 2
E 191 192 3
E 192 256 3
E 197 198 2
E 197 213 2
E 197 229 2
E 198 200 2
E 203 459 3
E 203 715 3
E 213 221 2
E 224 256 2
E 224 480 2
E 229 741 2
E 238 494 2
E 241 243 3
E 241 497 2
E 249 505 2
E 249 761 2
E 258 260 2
E 258 262 2
E 262 774 2
E 269 271 2
E 269 301 3
E 269 397 3
E 271 287 2
E 275 279 2
E 275 403 3
E 279 287 2
E 283 284 2
E 283 287 2
E 284 316 2
E 299 811 3
E 306 818 2
E 316 380 2
E 322 330 2
E 322 450 2
E 327 359 2
E 327 839 3
E 330 334 2
E 330 842 3
E 334 350 2
E 337 369 2
E 350 478 2
E 353 369 2
E 353 865 2
E 359 375 2
E 359 487 2
E 397 461 2
E 410 922 2
E 417 421 2
E 417 929 2
E 421 437 2
E 424 488 2
E 437 501 3
E 461 973 2
E 468 472 2
E 468 500 2
E 472 480 3
E 478 480 2
E 487 488 2
E 497 501 2
E 501 509 2
E 505 509 2
E 514 530 3
E 514 578 3
E 515 516 2
E 515 519 2
E 515 547 2
E 516 644 2
E 519 775 2
E 521 525 3
E 528 560 2
E 529 530 2
E 529 657 2
E 547 675 2
E 552 560 3
E 555 556 2
E 555 811 2
E 556 560 3
E 556 620 2
E 560 816 2
E 563 571 2
E 563 627 2
E 565 821 2
E 588 604 2
E 588 844 2
E 597 599 2
E 597 853 2
E 599 727 2
E 604 608 2
E 617 745 3
E 620 748 2
E 634 762 2
E 644 652 2
E 644 660 2
E 644 676 2
E 652 908 2
E 657 665 2
E 660 668 2
E 665 921 2
E 674 676 2
E 675 691 2
E 691 947 2
E 696 760 3
E 702 958 3
E 715 747 2
E 718 974 2
E 745 761 3
E 747 748 2
E 748 1004 3
E 761 762 2
E 773 775 2
E 773 789 2
E 774 902 2
E 775 776 2
E 775 839 3
E 775 903 3
E 776 792 2
E 789 821 2
E 789 853 2
E 792 824 3
E 798 926 2
E 801 803 2
E 801 817 3
E 801 865 2
E 801 929 2
E 803 811 2
E 810 874 2
E 816 832 2
E 817 818 2
E 824 832 3
E 838 840 2
E 838 870 2
E 839 840 3
E 841 842 2
E 841 857 2
E 842 844 2
E 842 874 2
E 857 859 3
E 857 861 2
E 861 893 2
E 868 996 3
E 893 1021 2
E 901 902 2
E 901 903 2
E 908 912 3
E 921 922 2
E 926 958 2
E 941 957 2
E 957 958 2
E 961 977 2
E 973 974 2
E 977 978 2
E 978 980 3
E 978 982 3
E 978 1010 3
E 996 1004 3
E 996 1012 2
E 1010 1012 2
E 1021 1023 2
END
SECTION Terminals
T 1
T 16
T 23
T 25
T 39
T 52
T 57
T 62
T 75
T 84
T 100
T 102
T 109
T 110
T 118
T 127
T 133
T 138
T 147
T 150
T 162
T 170
T 175
T 191
T 192
T 197
T 200
T 203
T 218
T 221
T 241
T 243
T 256
T 260
T 262
T 269
T 275
T 284
T 287
T 299
T 301
T 306
T 327
T 330
T 337
T 350
T 353
T 368
T 375
T 380
T 397
T 403
T 410
T 417
T 424
T 437
T 444
T 450
T 459
T 472
T 480
T 487
T 494
T 500
T 501
T 505
T 514
T 515
T 521
T 525
T 530
T 552
T 556
T 560
T 565
T 571
T 578
T 588
T 597
T 608
T 617
T 623
T 627
T 634
T 644
T 657
T 668
T 671
T 674
T 675
T 696
T 702
T 715
T 718
T 727
T 741
T 745
T 748
T 760
T 761
T 775
T 789
T 792
T 798
T 801
T 810
T 811
T 817
T 824
T 832
T 839
T 840
T 842
T 857
T 859
T 868
T 870
T 893
T 902
T 903
T 908
T 912
T 921
T 941
T 947
T 958
T 961
T 973
T 978
T 980
T 982
T 996
T 1004
T 1010
T 1023
END
SECTION Cost
481
END
